
===== New CPLEX run =====
Instance: /home/yorig/tuner/mpils-tests/instances/miplib/easy/lotsize.mps
Config: /scratch/yorig/mpils-results-grid-seconds-5-watchdog/easy/24proc/seed-5/4_lotsize_seed-5_20260504_011421/expansion/config_param_CPXPARAM_MIP_Strategy_StartAlgorithm_4_iter_2.prm
========================

Selected objective sense:  MINIMIZE
Selected objective  name:  R1921
Selected RHS        name:  B
Selected bound      name:  BOUND
Wall watchdog: enabled factor=1 grace=1 limit=6 seconds
Version identifier: 22.1.2.0 | 2024-11-26 | 0edbb82fd
CPXPARAM_Threads                                 8
CPXPARAM_Parallel                                1
CPXPARAM_MIP_Cuts_Cliques                        -1
CPXPARAM_MIP_Cuts_Covers                         -1
CPXPARAM_MIP_Strategy_StartAlgorithm             4
CPXPARAM_MIP_Cuts_Implied                        1
CPXPARAM_MIP_Limits_GomoryCand                   25
CPXPARAM_MIP_Cuts_Gomory                         1
CPXPARAM_MIP_Cuts_PathCut                        2
CPXPARAM_MIP_Cuts_Disjunctive                    -1
CPXPARAM_Emphasis_MIP                            1
CPXPARAM_TimeLimit                               5
Tried aggregator 1 time.
MIP Presolve eliminated 595 rows and 0 columns.
MIP Presolve added 1190 rows and 0 columns.
MIP Presolve modified 10 coefficients.
Reduced MIP has 2515 rows, 2985 columns, and 7755 nonzeros.
Reduced MIP has 1195 binaries, 0 generals, 0 SOSs, and 0 indicators.
Presolve time = 0.00 sec. (4.53 ticks)
Probing fixed 0 vars, tightened 5487 bounds.
Probing time = 0.01 sec. (18.38 ticks)
Tried aggregator 2 times.
Detecting symmetries...
MIP Presolve modified 1206 coefficients.
Aggregator did 10 substitutions.
Reduced MIP has 2505 rows, 2975 columns, and 7735 nonzeros.
Reduced MIP has 1195 binaries, 0 generals, 0 SOSs, and 0 indicators.
Presolve time = 0.00 sec. (6.66 ticks)
Probing fixed 0 vars, tightened 2401 bounds.
Probing time = 0.00 sec. (6.41 ticks)
Clique table members: 190.
MIP emphasis: integer feasibility.
MIP search method: dynamic search.
Parallel mode: deterministic, using up to 8 threads.
Root relaxation solution time = 0.01 sec. (15.19 ticks)

        Nodes                                         Cuts/
   Node  Left     Objective  IInf  Best Integer    Best Bound    ItCnt     Gap

      0     0   348385.3466   474                 348385.3466       16         
      0     0   570524.5533   463                   Cuts: 726     1019         
      0     0   801506.3309   709                   Cuts: 726     1898         
      0     0   938688.4495   711                   Cuts: 726     2703         
*     0+    0                       1.01740e+07   938688.4495            90.77%
*     0+    0                      7973370.0000   938688.4495            88.23%
Detecting symmetries...
      0     2   938688.4495   711  7973370.0000   943679.5361     2703   88.16%
Elapsed time = 0.40 sec. (578.32 ticks, tree = 0.02 MB, solutions = 2)
    240   166  1024546.2117   713  7973370.0000   943679.5361     7205   88.16%
    828   656   992559.1636   705  7973370.0000   943679.5361    12364   88.16%
   1425  1300  1328128.3516   432  7973370.0000   943679.5361    19571   88.16%

Performing restart 1

Repeating presolve.
Tried aggregator 1 time.
MIP Presolve modified 1156 coefficients.
Reduced MIP has 2505 rows, 2975 columns, and 7735 nonzeros.
Reduced MIP has 1195 binaries, 0 generals, 0 SOSs, and 0 indicators.
Presolve time = 0.00 sec. (3.78 ticks)
Tried aggregator 1 time.
MIP Presolve modified 1030 coefficients.
Reduced MIP has 2505 rows, 2975 columns, and 7735 nonzeros.
Reduced MIP has 1195 binaries, 0 generals, 0 SOSs, and 0 indicators.
Presolve time = 0.00 sec. (5.12 ticks)
Represolve time = 0.02 sec. (18.57 ticks)
   1689     0  1085646.6058   734  7973370.0000     Cuts: 726    25918   86.38%
   1689     0  1187763.3952   716  7973370.0000     Cuts: 726    26834   85.10%
   1689     0  1250696.6799   742  7973370.0000     Cuts: 726    27641   84.31%
   1689     2  1250696.6799   742  7973370.0000  1250696.6799    27641   84.31%
   1709    22  1267735.2565   648  7973370.0000  1250700.2770    28466   84.31%
   1737    49  1292871.1752   614  7973370.0000  1250700.2770    29370   84.31%
   1745    54  1356550.9850   625  7973370.0000  1250700.2770    31319   84.31%
   1758    60  1325865.9534   698  7973370.0000  1250700.2770    34697   84.31%
   1784    80  1344601.1054   653  7973370.0000  1252733.8805    42843   84.29%
   2145   271  1457278.4392   457  7973370.0000  1253213.2869    70994   84.28%
Elapsed time = 4.19 sec. (5526.48 ticks, tree = 0.75 MB, solutions = 2)
*  2516+  712                      4393274.0000  1253213.2869            71.47%
*  2520+  712                      2989874.0000  1253213.2869            58.08%
*  2523+  680                      1811539.0000  1253213.2869            30.82%
*  2603+  743                      1689975.0000  1253213.2869            25.84%
*  2717+  773                      1657919.0000  1253213.2869            24.41%
*  2721+  773                      1651996.0000  1253213.2869            24.14%
*  2723+  773                      1640232.0000  1253213.2869            23.60%
*  2754+  868                      1628360.0000  1253213.2869            23.04%

Implied bound cuts applied:  15
Flow cuts applied:  608
Mixed integer rounding cuts applied:  1040
Flow path cuts applied:  96
Multi commodity flow cuts applied:  25
Lift and project cuts applied:  17
Gomory fractional cuts applied:  1

Root node processing (before b&c):
  Real time             =    0.40 sec. (576.33 ticks)
Parallel b&c, 8 threads:
  Real time             =    4.62 sec. (5710.84 ticks)
  Sync time (average)   =    0.59 sec.
  Wait time (average)   =    0.01 sec.
                          ------------
Total (root+branch&cut) =    5.01 sec. (6287.17 ticks)
Gap: 23.04%
Upper bound: 1.62836e+06
Lower bound: 1.25321e+06
Termination status: Normal
End of CPLEX run. Time: 5.01422 seconds

===== New CPLEX run =====
Instance: /home/yorig/tuner/mpils-tests/instances/miplib/easy/lotsize.mps
Config: /scratch/yorig/mpils-results-grid-seconds-5-watchdog/easy/24proc/seed-5/4_lotsize_seed-5_20260504_011421/expansion/config_param_CPXPARAM_MIP_Strategy_StartAlgorithm_5_iter_2.prm
========================

Selected objective sense:  MINIMIZE
Selected objective  name:  R1921
Selected RHS        name:  B
Selected bound      name:  BOUND
Wall watchdog: enabled factor=1 grace=1 limit=6 seconds
Version identifier: 22.1.2.0 | 2024-11-26 | 0edbb82fd
CPXPARAM_Threads                                 8
CPXPARAM_Parallel                                1
CPXPARAM_MIP_Cuts_Cliques                        -1
CPXPARAM_MIP_Cuts_Covers                         -1
CPXPARAM_MIP_Strategy_StartAlgorithm             5
CPXPARAM_MIP_Cuts_Implied                        1
CPXPARAM_MIP_Limits_GomoryCand                   25
CPXPARAM_MIP_Cuts_Gomory                         1
CPXPARAM_MIP_Cuts_PathCut                        2
CPXPARAM_MIP_Cuts_Disjunctive                    -1
CPXPARAM_Emphasis_MIP                            1
CPXPARAM_TimeLimit                               5
Tried aggregator 1 time.
MIP Presolve eliminated 595 rows and 0 columns.
MIP Presolve added 1190 rows and 0 columns.
MIP Presolve modified 10 coefficients.
Reduced MIP has 2515 rows, 2985 columns, and 7755 nonzeros.
Reduced MIP has 1195 binaries, 0 generals, 0 SOSs, and 0 indicators.
Presolve time = 0.00 sec. (4.53 ticks)
Probing fixed 0 vars, tightened 5487 bounds.
Probing time = 0.01 sec. (18.38 ticks)
Tried aggregator 2 times.
Detecting symmetries...
MIP Presolve modified 1206 coefficients.
Aggregator did 10 substitutions.
Reduced MIP has 2505 rows, 2975 columns, and 7735 nonzeros.
Reduced MIP has 1195 binaries, 0 generals, 0 SOSs, and 0 indicators.
Presolve time = 0.00 sec. (6.66 ticks)
Probing fixed 0 vars, tightened 2401 bounds.
Probing time = 0.00 sec. (6.41 ticks)
Clique table members: 190.
MIP emphasis: integer feasibility.
MIP search method: dynamic search.
Parallel mode: deterministic, using up to 8 threads.
Root relaxation solution time = 0.06 sec. (63.96 ticks)

        Nodes                                         Cuts/
   Node  Left     Objective  IInf  Best Integer    Best Bound    ItCnt     Gap

      0     0   348385.3466   470                 348385.3466        8         
      0     0   592820.2256   443                   Cuts: 726     1247         
      0     0   816683.1990   711                   Cuts: 726     2214         
      0     0   943603.9569   719                   Cuts: 726     2950         
*     0+    0                       1.01740e+07   943603.9569            90.73%
*     0+    0                      7973370.0000   943603.9569            88.17%
Detecting symmetries...
      0     2   943603.9569   719  7973370.0000   943603.9569     2950   88.17%
Elapsed time = 0.36 sec. (536.55 ticks, tree = 0.02 MB, solutions = 2)
    271   218  1011086.7838   679  7973370.0000   943791.2161     8942   88.16%
    919   794  1128924.1005   571  7973370.0000   943791.2161    17290   88.16%
   1641  1516  1150726.2084   472  7973370.0000   943791.2161    28302   88.16%

Performing restart 1

Repeating presolve.
Tried aggregator 1 time.
MIP Presolve modified 1153 coefficients.
Reduced MIP has 2505 rows, 2975 columns, and 7735 nonzeros.
Reduced MIP has 1195 binaries, 0 generals, 0 SOSs, and 0 indicators.
Presolve time = 0.00 sec. (3.78 ticks)
Tried aggregator 1 time.
MIP Presolve modified 1032 coefficients.
Reduced MIP has 2505 rows, 2975 columns, and 7735 nonzeros.
Reduced MIP has 1195 binaries, 0 generals, 0 SOSs, and 0 indicators.
Presolve time = 0.00 sec. (5.12 ticks)
Represolve time = 0.02 sec. (18.26 ticks)
*  1693+    0                      6671683.0000   960132.1500            85.61%
   1693     0  1099265.5356   765  6671683.0000     Cuts: 726    32339   83.52%
   1693     0  1204169.6422   710  6671683.0000     Cuts: 726    33176   81.95%
   1693     0  1259242.7003   725  6671683.0000     Cuts: 726    33889   81.13%
   1693     2  1259242.7003   725  6671683.0000  1259242.7003    33889   81.13%
   1703    12  1274766.6746   688  6671683.0000  1259303.6711    34244   81.12%
   1726    35  1293190.2260   646  6671683.0000  1259303.6711    34991   81.12%
   1742    41  1318008.9747   702  6671683.0000  1259303.6711    36085   81.12%
   1757    61  1395084.9410   614  6671683.0000  1259303.6711    43698   81.12%
   1788    93  1357156.0639   697  6671683.0000  1260175.4913    53370   81.11%
   2230   340  1405535.3624   485  6671683.0000  1269968.1482    78717   80.96%
Elapsed time = 4.20 sec. (5740.75 ticks, tree = 0.36 MB, solutions = 3)
*  2482+  555                      1818742.0000  1269968.1482            30.17%
*  2597+  761                      1781717.0000  1269968.1482            28.72%
*  2611+  761                      1764404.0000  1269968.1482            28.02%
*  2616+  761                      1756170.0000  1269968.1482            27.69%
*  2637+  787                      1755120.0000  1269968.1482            27.64%
*  2721+  869                      1695484.0000  1269968.1482            25.10%
*  2725+  869                      1691113.0000  1269968.1482            24.90%
*  2730+  869                      1689896.0000  1269968.1482            24.85%
*  3005+  972                      1657864.0000  1269968.1482            23.40%
*  3009+  972                      1655168.0000  1269968.1482            23.27%
*  3070+ 1093                      1633819.0000  1269968.1482            22.27%
*  3084+ 1087                      1566844.0000  1269968.1482            18.95%
*  3097+ 1086                      1553409.0000  1269968.1482            18.25%
   3154  1182  1438110.2239   569  1553409.0000  1269968.1482   116375   18.25%

Implied bound cuts applied:  16
Flow cuts applied:  545
Mixed integer rounding cuts applied:  1045
Flow path cuts applied:  113
Multi commodity flow cuts applied:  25
Lift and project cuts applied:  6
Gomory fractional cuts applied:  1

Root node processing (before b&c):
  Real time             =    0.36 sec. (530.61 ticks)
Parallel b&c, 8 threads:
  Real time             =    4.65 sec. (6330.60 ticks)
  Sync time (average)   =    0.27 sec.
  Wait time (average)   =    0.00 sec.
                          ------------
Total (root+branch&cut) =    5.00 sec. (6861.21 ticks)
Gap: 18.05%
Upper bound: 1.55341e+06
Lower bound: 1.27305e+06
Termination status: Normal
End of CPLEX run. Time: 5.00551 seconds
